proyfinal/src/viki/013/experimentInOfficeAgust.take6.output/c4175937-f967-4801-940d-37144b73a107.als.out
Reading from standard input... Use '--help' for help.
============================[ Problem Statistics ]=============================
|                                                                             |
|  Number of variables:         87638                                         |
|  Number of clauses:          161767                                         |
|  Parse time:                   0.04 s                                       |
|                                                                             |
============================[ Search Statistics ]==============================
| Conflicts |          ORIGINAL         |          LEARNT          | Progress |
|           |    Vars  Clauses Literals |    Limit  Clauses Lit/Cl |          |
===============================================================================
|       100 |   63847   110432   276045 |    40491       99     17 | 27.147 % |
|       250 |   63847   110388   275955 |    44540      249     70 | 27.147 % |
|       475 |   63847   110388   275955 |    48994      474     76 | 27.147 % |
|       812 |   63847   110388   275955 |    53894      811     88 | 27.147 % |
|      1318 |   63847   110388   275955 |    59283     1317     82 | 27.147 % |
|      2077 |   63847   110388   275955 |    65212     2076     96 | 27.147 % |
|      3216 |   63847   110388   275955 |    71733     3215     94 | 27.147 % |
|      4924 |   63769   110064   275214 |    78906     4918     93 | 27.236 % |
|      7486 |   63745   109967   274988 |    86797     7477     85 | 27.263 % |
|     11330 |   63675   109644   274246 |    95477     9735     84 | 27.343 % |
|     17096 |   63609   109351   273611 |   105025    14951     82 | 27.418 % |
===============================================================================
restarts              : 63
conflicts             : 19241          (5586 /sec)
decisions             : 62950          (0.00 % random) (18274 /sec)
propagations          : 32104691       (9319936 /sec)
conflict literals     : 1521398        (59.53 % deleted)
Memory used           : 46.26 MB
CPU time              : 3.44473 s

INDETERMINATE
